data/convertInstances/input/exampleTumorData.txt
4 3 -1 Gene Sample
0 0 0 GENE_ID0 SAMPLE_ID0
0 1 1 GENE_ID0 SAMPLE_ID1
0 2 1 GENE_ID0 SAMPLE_ID2
1 0 0 GENE_ID1 SAMPLE_ID0
1 1 1 GENE_ID1 SAMPLE_ID1
1 2 0 GENE_ID1 SAMPLE_ID2
2 0 1 GENE_ID2 SAMPLE_ID0
2 1 0 GENE_ID2 SAMPLE_ID1
2 2 0 GENE_ID2 SAMPLE_ID2
3 0 1 GENE_ID3 SAMPLE_ID0
3 1 1 GENE_ID3 SAMPLE_ID1
3 2 0 GENE_ID3 SAMPLE_ID2